Copyright (C) 2013-2015, Filipe Brandao
Build (method = -2)
  #dp: 88910
  Step-3' Graph: 389 vertices and 34346 arcs (0.25s)
  Step-4' Graph: 385 vertices and 34338 arcs (0.26s)
  #V4/#V3 = 0.99
  #A4/#A3 = 1.00
Ready! (0.26s)
Optimize a model with 714 rows, 34339 columns and 102252 nonzeros
Presolve removed 145 rows and 150 columns
Presolve time: 0.14s
Presolved: 569 rows, 34189 columns, 101742 nonzeros
Variable types: 0 continuous, 34189 integer (5440 binary)
Optimize a model with 569 rows, 34189 columns and 101742 nonzeros
Presolved: 569 rows, 34189 columns, 101742 nonzeros

Root barrier log...

Ordering time: 0.01s

Barrier statistics:
 AA' NZ     : 6.578e+04
 Factor NZ  : 1.127e+05 (roughly 15 MBytes of memory)
 Factor Ops : 2.965e+07 (less than 1 second per iteration)
 Threads    : 1

                  Objective                Residual
Iter       Primal          Dual         Primal    Dual     Compl     Time
   0   2.05359397e+05 -1.29494047e+06  3.12e+06 4.80e-02  5.44e+02     0s
   1   6.06256891e+04 -3.08155739e+05  4.82e+05 6.66e-16  8.61e+01     0s
   2   7.10089350e+03 -1.04452100e+05  2.43e+04 1.39e-02  5.63e+00     0s
   3   2.71646290e+03 -4.77959533e+04  2.99e+03 3.10e-03  1.17e+00     0s
   4   1.81118817e+03 -1.56284064e+04  8.14e+02 5.74e-04  3.47e-01     0s
   5   1.67175281e+03 -8.43900192e+03  6.54e+02 1.60e-04  2.11e-01     0s
   6   1.33405038e+03 -5.55678390e+03  3.38e+02 2.00e-15  1.30e-01     0s
   7   1.09352582e+03 -3.43998616e+03  1.51e+02 1.33e-15  7.74e-02     0s
   8   9.70998336e+02 -2.65536685e+03  7.24e+01 1.11e-15  5.78e-02     0s
   9   9.33011535e+02 -2.06804161e+03  6.06e+01 8.88e-16  4.75e-02     0s
  10   8.70376322e+02 -1.47653334e+03  4.62e+01 6.66e-16  3.69e-02     0s
  11   8.20019369e+02 -1.35459386e+03  3.58e+01 7.77e-16  3.37e-02     0s
  12   7.51747739e+02 -6.99885807e+02  2.47e+01 6.66e-16  2.24e-02     0s
  13   6.85143794e+02 -4.49846305e+02  1.75e+01 4.44e-16  1.74e-02     0s
  14   5.83008861e+02 -1.73639680e+02  8.51e+00 3.33e-16  1.14e-02     0s
  15   5.48029434e+02  5.32733044e+01  5.94e+00 2.62e-16  7.44e-03     0s
  16   5.37840533e+02  1.53939209e+02  5.28e+00 3.33e-16  5.78e-03     0s
  17   5.02358428e+02  2.52021951e+02  3.14e+00 3.33e-16  3.75e-03     0s
  18   4.76789819e+02  3.10265282e+02  1.65e+00 2.53e-16  2.48e-03     0s
  19   4.73563785e+02  3.30143597e+02  1.46e+00 2.74e-16  2.13e-03     0s
  20   4.70746373e+02  3.41165931e+02  1.26e+00 3.00e-16  1.92e-03     0s
  21   4.68286504e+02  3.50906421e+02  1.07e+00 3.33e-16  1.74e-03     0s
  22   4.64238199e+02  3.74690378e+02  7.21e-01 3.29e-16  1.32e-03     0s
  23   4.63440082e+02  3.79462091e+02  6.50e-01 3.16e-16  1.24e-03     0s
  24   4.61611921e+02  3.99582598e+02  4.89e-01 3.12e-16  9.13e-04     0s
  25   4.59383343e+02  4.22122696e+02  2.81e-01 2.27e-16  5.47e-04     0s
  26   4.58348495e+02  4.32345650e+02  1.99e-01 3.33e-16  3.81e-04     0s
  27   4.57657230e+02  4.34775258e+02  1.47e-01 3.33e-16  3.35e-04     0s
  28   4.57053271e+02  4.41552949e+02  1.08e-01 3.33e-16  2.27e-04     0s
  29   4.56251115e+02  4.44281976e+02  5.92e-02 3.33e-16  1.75e-04     0s
  30   4.56052699e+02  4.46551814e+02  4.80e-02 3.33e-16  1.39e-04     0s
  31   4.55969148e+02  4.47448490e+02  4.39e-02 2.68e-16  1.25e-04     1s
  32   4.55670339e+02  4.49186040e+02  2.98e-02 2.29e-16  9.48e-05     1s
  33   4.55466005e+02  4.49922231e+02  2.26e-02 2.72e-16  8.10e-05     1s
  34   4.55232706e+02  4.51243661e+02  1.63e-02 2.76e-16  5.83e-05     1s
  35   4.55067148e+02  4.51731276e+02  1.23e-02 3.28e-16  4.87e-05     1s
  36   4.55034263e+02  4.51982143e+02  1.16e-02 2.84e-16  4.46e-05     1s
  37   4.54958737e+02  4.52404215e+02  9.81e-03 2.78e-16  3.73e-05     1s
  38   4.54858837e+02  4.52594914e+02  7.55e-03 2.96e-16  3.31e-05     1s
  39   4.54790681e+02  4.53040620e+02  5.94e-03 3.08e-16  2.56e-05     1s
  40   4.54721423e+02  4.53318829e+02  4.62e-03 3.02e-16  2.05e-05     1s
  41   4.54652434e+02  4.53604363e+02  2.94e-03 2.45e-16  1.53e-05     1s
  42   4.54591400e+02  4.53823495e+02  2.05e-03 3.33e-16  1.12e-05     1s
  43   4.54570640e+02  4.53983165e+02  1.75e-03 2.38e-16  8.58e-06     1s
  44   4.54535454e+02  4.54072903e+02  1.16e-03 2.95e-16  6.75e-06     1s
  45   4.54497958e+02  4.54156373e+02  6.92e-04 2.58e-16  4.99e-06     1s
  46   4.54493054e+02  4.54201729e+02  6.10e-04 2.76e-16  4.25e-06     1s
  47   4.54488270e+02  4.54227478e+02  5.46e-04 2.85e-16  3.81e-06     1s
  48   4.54478416e+02  4.54303244e+02  4.25e-04 2.86e-16  2.56e-06     1s
  49   4.54472231e+02  4.54329553e+02  3.43e-04 2.71e-16  2.08e-06     1s
  50   4.54457878e+02  4.54338727e+02  1.93e-04 3.33e-16  1.74e-06     1s
  51   4.54447041e+02  4.54375669e+02  8.87e-05 3.33e-16  1.04e-06     1s
  52   4.54442750e+02  4.54412886e+02  5.34e-05 3.33e-16  4.36e-07     1s
  53   4.54440535e+02  4.54433103e+02  3.31e-05 4.44e-16  1.09e-07     1s
  54   4.54436502e+02  4.54436427e+02  1.25e-10 4.44e-16  1.10e-09     1s
  55   4.54436475e+02  4.54436475e+02  4.13e-12 4.44e-16  1.10e-12     1s

Barrier solved model in 55 iterations and 0.87 seconds
Optimal objective 4.54436475e+02


Root relaxation: objective 4.544365e+02, 1493 iterations, 0.90 seconds

    Nodes    |    Current Node    |     Objective Bounds      |     Work
 Expl Unexpl |  Obj  Depth IntInf | Incumbent    BestBd   Gap | It/Node Time

     0     0  454.43648    0  123          -  454.43648     -      -    1s
H    0     0                     457.0000000  454.43648  0.56%     -    2s
H    0     0                     455.0000000  454.43648  0.12%     -    3s

Explored 0 nodes (5637 simplex iterations) in 3.55 seconds
Thread count was 1 (of 4 available processors)

Optimal solution found (tolerance 0.00e+00)
Best objective 4.550000000000e+02, best bound 4.550000000000e+02, gap 0.0%
Preprocessing time: 0.32 seconds
Gurobi run time: 3.55 seconds
Total run time: 3.87 seconds
Objective: 455
Solution:
4 x [i=1, i=285]
2 x [i=2, i=284]
2 x [i=2, i=286]
5 x [i=3, i=283]
3 x [i=4, i=282]
2 x [i=5, i=281]
2 x [i=6, i=280]
3 x [i=7, i=279]
3 x [i=7, i=280]
2 x [i=8, i=278]
2 x [i=9, i=277]
1 x [i=9, i=278]
1 x [i=9, i=323, i=327]
1 x [i=10, i=328]
1 x [i=11, i=276]
1 x [i=11, i=319, i=329]
3 x [i=11, i=322, i=326]
1 x [i=11, i=323, i=325]
1 x [i=11, i=324, i=324]
1 x [i=12, i=322, i=325]
3 x [i=13, i=275]
1 x [i=13, i=318, i=329]
1 x [i=13, i=319, i=327]
2 x [i=14, i=274]
1 x [i=15, i=273]
1 x [i=16, i=272]
3 x [i=16, i=273]
4 x [i=17, i=272]
3 x [i=18, i=270]
2 x [i=18, i=271]
1 x [i=18, i=272]
2 x [i=19, i=269]
1 x [i=19, i=271]
1 x [i=19, i=317, i=324]
1 x [i=20, i=267]
2 x [i=21, i=266]
1 x [i=21, i=267]
1 x [i=22, i=265]
1 x [i=23, i=264]
2 x [i=23, i=265]
2 x [i=24, i=263]
1 x [i=25, i=262]
1 x [i=25, i=264]
1 x [i=25, i=324]
2 x [i=26, i=261]
2 x [i=27, i=260]
1 x [i=27, i=312, i=321]
3 x [i=28, i=259]
1 x [i=28, i=306, i=326]
1 x [i=29, i=258]
2 x [i=29, i=304, i=328]
1 x [i=29, i=307, i=324]
2 x [i=30, i=257]
1 x [i=31, i=256]
1 x [i=31, i=257]
1 x [i=31, i=309, i=320]
2 x [i=31, i=312, i=318]
2 x [i=32, i=254]
1 x [i=32, i=255]
1 x [i=32, i=311, i=317]
1 x [i=33, i=253]
1 x [i=33, i=302, i=325]
1 x [i=33, i=311, i=316]
1 x [i=34, i=252]
2 x [i=34, i=313, i=314]
2 x [i=35, i=251]
1 x [i=36, i=250]
2 x [i=37, i=249]
3 x [i=38, i=248]
2 x [i=39, i=247]
1 x [i=39, i=248]
1 x [i=39, i=250]
2 x [i=40, i=245]
2 x [i=41, i=244]
1 x [i=41, i=245]
1 x [i=41, i=246]
4 x [i=42, i=242]
1 x [i=42, i=243]
2 x [i=43, i=241]
1 x [i=43, i=243]
1 x [i=44, i=240]
1 x [i=45, i=239]
2 x [i=46, i=239]
3 x [i=47, i=237]
2 x [i=48, i=236]
1 x [i=48, i=237]
3 x [i=49, i=235]
1 x [i=50, i=234]
3 x [i=51, i=233]
2 x [i=52, i=231]
1 x [i=52, i=232]
2 x [i=52, i=233]
2 x [i=53, i=230]
1 x [i=54, i=229]
4 x [i=55, i=228]
1 x [i=56, i=228]
1 x [i=56, i=229]
1 x [i=56, i=230]
1 x [i=57, i=297, i=306]
1 x [i=57, i=301, i=302]
2 x [i=58, i=226]
1 x [i=58, i=227]
3 x [i=59, i=225]
1 x [i=60, i=224]
1 x [i=61, i=223]
2 x [i=62, i=222]
2 x [i=62, i=223]
1 x [i=62, i=224]
2 x [i=63, i=221]
1 x [i=63, i=298, i=298]
6 x [i=64, i=220]
1 x [i=65, i=219]
2 x [i=65, i=292, i=303]
1 x [i=65, i=297, i=298]
6 x [i=66, i=218]
1 x [i=66, i=292, i=302]
2 x [i=67, i=217]
3 x [i=68, i=216]
1 x [i=69, i=215]
2 x [i=70, i=214]
1 x [i=71, i=213]
1 x [i=71, i=214]
3 x [i=72, i=212]
1 x [i=72, i=213]
3 x [i=73, i=211]
1 x [i=73, i=212]
2 x [i=74, i=210]
1 x [i=74, i=211]
4 x [i=75, i=209]
1 x [i=75, i=291, i=295]
2 x [i=76, i=208]
3 x [i=77, i=207]
2 x [i=77, i=208]
4 x [i=78, i=206]
5 x [i=79, i=205]
2 x [i=80, i=204]
2 x [i=81, i=203]
3 x [i=82, i=202]
3 x [i=83, i=201]
1 x [i=83, i=203]
2 x [i=84, i=200]
2 x [i=85, i=199]
2 x [i=86, i=198]
1 x [i=87, i=197]
1 x [i=87, i=285, i=291]
1 x [i=87, i=286, i=290]
1 x [i=87, i=287, i=287]
3 x [i=88, i=196]
1 x [i=88, i=286, i=289]
2 x [i=89, i=195]
2 x [i=90, i=194]
2 x [i=90, i=195]
1 x [i=91, i=193]
2 x [i=92, i=192]
1 x [i=93, i=191]
5 x [i=94, i=190]
1 x [i=94, i=191]
4 x [i=95, i=189]
2 x [i=96, i=188]
3 x [i=97, i=187]
1 x [i=97, i=188]
2 x [i=98, i=186]
1 x [i=99, i=185]
2 x [i=99, i=186]
1 x [i=100, i=184]
1 x [i=100, i=187]
1 x [i=100, i=274, i=293]
3 x [i=101, i=183]
1 x [i=101, i=268, i=296]
4 x [i=102, i=182]
1 x [i=102, i=311]
2 x [i=103, i=250, i=310]
1 x [i=103, i=268, i=294]
1 x [i=104, i=243, i=315]
1 x [i=104, i=246, i=313]
2 x [i=104, i=251, i=308]
3 x [i=105, i=181]
1 x [i=106, i=180]
1 x [i=106, i=250, i=307]
2 x [i=107, i=179]
1 x [i=108, i=282, i=282]
3 x [i=109, i=178]
1 x [i=110, i=177]
1 x [i=110, i=179]
1 x [i=111, i=176]
2 x [i=111, i=177]
3 x [i=112, i=174]
1 x [i=113, i=173]
4 x [i=114, i=172]
1 x [i=114, i=173]
1 x [i=115, i=171]
1 x [i=116, i=170]
2 x [i=117, i=169]
1 x [i=118, i=167]
1 x [i=119, i=166]
2 x [i=120, i=165]
1 x [i=120, i=166]
4 x [i=121, i=164]
1 x [i=121, i=165]
2 x [i=122, i=162]
5 x [i=122, i=163]
2 x [i=123, i=161]
1 x [i=123, i=162]
2 x [i=123, i=243, i=296]
1 x [i=124, i=160]
2 x [i=124, i=237, i=300]
2 x [i=124, i=239, i=298]
2 x [i=125, i=159]
1 x [i=125, i=234, i=302]
1 x [i=126, i=158]
2 x [i=126, i=230, i=305]
1 x [i=126, i=250, i=287]
8 x [i=127, i=157]
2 x [i=128, i=156]
1 x [i=129, i=155]
2 x [i=130, i=154]
1 x [i=130, i=155]
2 x [i=131, i=153]
2 x [i=132, i=152]
2 x [i=133, i=151]
1 x [i=133, i=154]
2 x [i=134, i=150]
2 x [i=134, i=240, i=288]
3 x [i=135, i=149]
2 x [i=135, i=239, i=288]
3 x [i=136, i=148]
1 x [i=137, i=147]
2 x [i=138, i=146]
1 x [i=139, i=145]
3 x [i=140, i=144]
1 x [i=141, i=143]
1 x [i=142, i=145]
1 x [i=143, i=143]
1 x [i=144, i=216, i=303]
1 x [i=146, i=227, i=291]
1 x [i=147, i=204, i=311]
1 x [i=147, i=217, i=299]
1 x [i=147, i=234, i=283]
2 x [i=156, i=215, i=293]
1 x [i=156, i=227, i=283]
1 x [i=156, i=243, i=267]
1 x [i=166, i=204, i=294]
3 x [i=167, i=192, i=304]
1 x [i=168, i=193, i=302]
1 x [i=168, i=200, i=297]
1 x [i=168, i=204, i=292]
1 x [i=169, i=178, i=317]
1 x [i=169, i=203, i=292]
1 x [i=169, i=205, i=290]
1 x [i=170, i=189, i=304]
2 x [i=171, i=192, i=300]
1 x [i=171, i=193, i=300]
1 x [i=173, i=227, i=268]
1 x [i=174, i=206, i=286]
1 x [i=175, i=178, i=312]
1 x [i=175, i=208, i=283]
1 x [i=178, i=195, i=291]
1 x [i=192, i=234, i=238]
